c 1 instances, 10 variables, 25 clauses 
c solution = 0101001100
c Known solution weight is 46 
p cnf 10 25
w 47 29 13 10 6 38 6 1 24 7
-1 -4 3 0
-5 1 -4 0
-8 -2 -10 0
-3 9 1 0
9 -3 -2 0
-9 -8 5 0
10 -7 -5 0
-9 -10 -8 0
9 -7 4 0
10 -7 8 0
6 9 7 0
8 6 -7 0
-3 -4 10 0
-9 3 -8 0
-6 -7 5 0
-5 -4 8 0
-3 6 9 0
-3 -7 5 0
1 5 -6 0
10 2 -4 0
-7 2 3 0
8 -10 -1 0
-2 -4 7 0
-10 9 -4 0
10 -2 -1 0
